N = 15;
eps = 500;
length = [|0,-1,-1,-1,-1,-1,352,-1,-1,-1,-1,-1,-1,-1,-1
|-1,0,-1,-1,-1,-1,-1,-1,-1,-1,-1,-1,-1,256,238
|-1,-1,0,145,-1,134,-1,-1,-1,-1,-1,-1,-1,110,-1
|-1,-1,145,0,-1,-1,-1,-1,166,-1,-1,-1,256,-1,-1
|-1,-1,-1,-1,0,-1,-1,674,-1,-1,-1,518,-1,-1,-1
|-1,-1,134,-1,-1,0,-1,-1,-1,-1,-1,-1,-1,-1,365
|352,-1,-1,-1,-1,-1,0,-1,387,516,-1,-1,-1,-1,-1
|-1,-1,-1,-1,674,-1,-1,0,-1,-1,-1,-1,530,-1,-1
|-1,-1,-1,166,-1,-1,387,-1,0,-1,-1,-1,-1,-1,-1
|-1,-1,-1,-1,-1,-1,516,-1,-1,0,225,-1,-1,-1,-1
|-1,-1,-1,-1,-1,-1,-1,-1,-1,225,0,-1,-1,-1,-1
|-1,-1,-1,-1,518,-1,-1,-1,-1,-1,-1,0,-1,-1,233
|-1,-1,-1,256,-1,-1,-1,530,-1,-1,-1,-1,0,-1,-1
|-1,256,110,-1,-1,-1,-1,-1,-1,-1,-1,-1,-1,0,-1
|-1,238,-1,-1,-1,365,-1,-1,-1,-1,-1,233,-1,-1,0
|];